c FILE /home/rafael/Documents/HappySet/MIHS/inputs/happygen/output/graph_scale_free_k7_p0.2_v100_20241127_083855.txt
c SOURCE This is a scale-free graph formed for the happy graph colouring problem.
c DESCRIPTION It was generated using the problem generator of Rhyd Lewis
c
c GRAPH STATS
c Seed                             = -1541423366
c Number of Nodes                  = 100
c Number of colours k              = 7
c Number of pre-assignments        = 20
c Number of links per new node     = 5
c Density                          = 0.0979798
c 
c The degrees of nodes 1 to 100, respectively, are as follows 
c [39, 35, 31, 30, 29, 25, 25, 23, 23, 22, 20, 19, 18, 16, 16, 15, 14, 14, 14, 13, 13, 12, 11, 10, 10, 9, 
c  9, 9, 9, 9, 9, 9, 9, 9, 8, 8, 8, 8, 8, 8, 7, 7, 7, 7, 7, 7, 7, 7, 7, 7, 7, 
c  7, 7, 7, 7, 6, 6, 6, 6, 6, 6, 6, 6, 6, 6, 6, 6, 6, 6, 5, 5, 5, 5, 5, 5, 5, 
c  5, 5, 5, 5, 5, 5, 5, 5, 5, 5, 5, 5, 5, 5, 5, 5, 5, 5, 5, 5, 5, 5, 5, 5] 
c  
p edge 100 485 7
e 1 2
e 1 5
e 1 6
e 1 7
e 1 8
e 1 9
e 1 10
e 1 11
e 1 12
e 1 16
e 1 19
e 1 23
e 1 24
e 1 26
e 1 27
e 1 29
e 1 37
e 1 39
e 1 41
e 1 43
e 1 47
e 1 50
e 1 52
e 1 53
e 1 56
e 1 58
e 1 60
e 1 62
e 1 63
e 1 74
e 1 75
e 1 76
e 1 78
e 1 81
e 1 83
e 1 87
e 1 89
e 1 97
e 1 100
e 2 3
e 2 4
e 2 5
e 2 6
e 2 7
e 2 8
e 2 9
e 2 10
e 2 12
e 2 15
e 2 16
e 2 17
e 2 18
e 2 19
e 2 21
e 2 22
e 2 26
e 2 29
e 2 33
e 2 34
e 2 43
e 2 47
e 2 49
e 2 52
e 2 53
e 2 55
e 2 56
e 2 71
e 2 72
e 2 73
e 2 79
e 2 82
e 2 87
e 2 100
e 3 4
e 3 5
e 3 6
e 3 8
e 3 10
e 3 11
e 3 12
e 3 13
e 3 14
e 3 16
e 3 17
e 3 19
e 3 20
e 3 23
e 3 28
e 3 31
e 3 36
e 3 40
e 3 42
e 3 45
e 3 56
e 3 57
e 3 60
e 3 66
e 3 67
e 3 74
e 3 79
e 3 86
e 3 95
e 3 96
e 4 5
e 4 6
e 4 7
e 4 10
e 4 11
e 4 12
e 4 14
e 4 15
e 4 16
e 4 18
e 4 19
e 4 24
e 4 25
e 4 29
e 4 33
e 4 35
e 4 36
e 4 38
e 4 48
e 4 56
e 4 58
e 4 69
e 4 72
e 4 73
e 4 76
e 4 88
e 4 89
e 4 98
e 5 6
e 5 7
e 5 10
e 5 12
e 5 13
e 5 15
e 5 20
e 5 22
e 5 25
e 5 28
e 5 30
e 5 32
e 5 35
e 5 37
e 5 41
e 5 42
e 5 54
e 5 66
e 5 73
e 5 80
e 5 81
e 5 85
e 5 86
e 5 93
e 5 99
e 6 7
e 6 8
e 6 9
e 6 12
e 6 16
e 6 18
e 6 20
e 6 28
e 6 36
e 6 37
e 6 43
e 6 48
e 6 51
e 6 52
e 6 62
e 6 64
e 6 71
e 6 74
e 6 75
e 6 99
e 7 11
e 7 12
e 7 18
e 7 20
e 7 30
e 7 32
e 7 34
e 7 45
e 7 46
e 7 51
e 7 63
e 7 68
e 7 72
e 7 78
e 7 82
e 7 84
e 7 88
e 7 90
e 7 92
e 7 94
e 8 12
e 8 13
e 8 14
e 8 23
e 8 26
e 8 28
e 8 29
e 8 34
e 8 41
e 8 44
e 8 47
e 8 53
e 8 58
e 8 67
e 8 69
e 8 70
e 8 76
e 8 80
e 8 82
e 9 11
e 9 16
e 9 19
e 9 22
e 9 23
e 9 27
e 9 32
e 9 33
e 9 35
e 9 36
e 9 38
e 9 44
e 9 48
e 9 49
e 9 59
e 9 61
e 9 63
e 9 80
e 9 90
e 9 99
e 10 17
e 10 24
e 10 25
e 10 35
e 10 41
e 10 45
e 10 56
e 10 65
e 10 70
e 10 71
e 10 75
e 10 76
e 10 79
e 10 80
e 10 81
e 10 84
e 10 88
e 11 12
e 11 17
e 11 24
e 11 27
e 11 31
e 11 34
e 11 35
e 11 36
e 11 45
e 11 47
e 11 59
e 11 61
e 11 66
e 11 68
e 11 94
e 12 20
e 12 27
e 12 28
e 12 40
e 12 42
e 12 46
e 12 57
e 12 77
e 12 90
e 12 92
e 13 17
e 13 27
e 13 29
e 13 32
e 13 40
e 13 43
e 13 44
e 13 55
e 13 59
e 13 65
e 13 67
e 13 68
e 13 70
e 13 74
e 13 75
e 14 18
e 14 19
e 14 21
e 14 27
e 14 31
e 14 41
e 14 46
e 14 62
e 14 70
e 14 72
e 14 77
e 14 86
e 14 95
e 15 27
e 15 31
e 15 34
e 15 49
e 15 50
e 15 60
e 15 62
e 15 72
e 15 77
e 15 83
e 15 89
e 15 90
e 15 95
e 16 17
e 16 23
e 16 26
e 16 51
e 16 54
e 16 57
e 16 78
e 16 83
e 16 91
e 17 18
e 17 26
e 17 30
e 17 40
e 17 44
e 17 58
e 17 60
e 17 91
e 18 21
e 18 22
e 18 25
e 18 45
e 18 65
e 18 67
e 18 68
e 18 98
e 19 21
e 19 32
e 19 38
e 19 39
e 19 55
e 19 69
e 19 71
e 19 93
e 20 31
e 20 39
e 20 42
e 20 48
e 20 57
e 20 61
e 20 64
e 20 98
e 21 26
e 21 46
e 21 49
e 21 57
e 21 59
e 21 64
e 21 66
e 21 91
e 21 93
e 22 29
e 22 30
e 22 39
e 22 43
e 22 51
e 22 52
e 22 60
e 22 96
e 23 38
e 23 55
e 23 73
e 23 74
e 23 77
e 23 87
e 24 28
e 24 46
e 24 58
e 24 64
e 24 71
e 24 96
e 25 31
e 25 39
e 25 50
e 25 51
e 25 79
e 25 91
e 26 47
e 26 65
e 26 88
e 27 83
e 27 87
e 28 33
e 28 37
e 28 79
e 29 61
e 29 65
e 29 70
e 30 31
e 30 44
e 30 56
e 30 78
e 30 94
e 31 63
e 31 82
e 32 63
e 32 75
e 32 86
e 32 100
e 33 37
e 33 54
e 33 85
e 33 93
e 33 97
e 34 85
e 34 96
e 34 98
e 34 100
e 35 48
e 35 59
e 35 89
e 36 69
e 36 73
e 36 92
e 37 38
e 37 42
e 37 50
e 38 40
e 38 90
e 38 100
e 39 52
e 39 54
e 39 99
e 40 76
e 40 80
e 40 97
e 41 66
e 41 84
e 42 57
e 42 67
e 43 81
e 43 85
e 44 69
e 44 95
e 45 49
e 45 98
e 46 50
e 46 54
e 47 55
e 47 62
e 48 93
e 48 99
e 49 61
e 49 94
e 50 53
e 50 85
e 51 84
e 51 96
e 52 64
e 52 77
e 53 60
e 53 81
e 53 92
e 54 68
e 54 91
e 55 82
e 55 94
e 58 78
e 59 89
e 61 95
e 62 97
e 63 83
e 64 84
e 65 86
e 66 88
e 67 92
e 68 87
e 69 97
n 13 6
n 16 5
n 20 1
n 21 6
n 30 3
n 35 4
n 38 1
n 46 6
n 47 5
n 51 5
n 53 2
n 56 3
n 72 7
n 73 4
n 76 2
n 79 2
n 82 7
n 84 5
n 92 2
n 100 1
